Cu\(1\1\1)                              
   1.00000000000000     
     2.5717000960999998    0.0000000000000000    0.0000000000000000
    -1.2858500480999999    2.2271576141999998    0.0000000000000000
     0.0000000000000000    0.0000000000000000   21.2994003296000010
   Cu
     4
Selective dynamics
Direct
  0.0000000000000000  0.0000000000000000  0.0000000000000000   F   F   F
  0.3333300050000005  0.6666700239999983  0.0985900009999980   F   F   F
  0.0000047294844521  0.9999952705155479  0.2938706048985651   T   T   T
  0.6666677576321263  0.3333322713678726  0.1966734049981795   T   T   T
 
  0.00000000E+00  0.00000000E+00  0.00000000E+00
  0.00000000E+00  0.00000000E+00  0.00000000E+00
  0.00000000E+00  0.00000000E+00  0.00000000E+00
  0.00000000E+00  0.00000000E+00  0.00000000E+00
