System = Cu111

ISMEAR = 1 
SIMGA = 0.1
ALGO = FAST
ENCUT = 450
EDIFF = 1E-5

IDIPOL = .TRUE.
IDIPOL = 3 

NWRITE = 0 
LWAVE = .FALSE.
LCHARG = .FALSE.

IBRION = 2 
POTIM = 0.1
EDIFFG = -0.01
NSW = 1 

LVHAR = .TRUE.
