Cu\(1\1\1)
   1.00000000000000
     2.5717000960999998    0.0000000000000000    0.0000000000000000
    -1.2858500480999999    2.2271576141999998    0.0000000000000000
     0.0000000000000000    0.0000000000000000   21.2994003296000010
   Cu
     4
Selective dynamics
Cartesian
+0.0000000000   +0.0000000000   +0.0000000000   F F F
-0.0000128765   +1.4847792201   +2.0999078998   F F F
+0.0000182442   -0.0000105333   +6.2592676588   T T T
+1.2858542192   +0.7423835062   +4.1890255872   T T T
